data;

param num_top:=6;

#nodes and edges of the physical network
param n := 10;

set E := (1,2) (1,3) (1,7) (2,4) (2,7) (3,5) (4,8) (5,6) (5,7) (6,7) (6,9) (7,8) (7,9) (8,10) (9,10) ;

#nodes and edges of the virtual networks
set Nl[1] := 10 1 2 6 ;
set Nl[2] := 3 8 1 5 ;
set Nl[3] := 7 5 6 8 10 ;
set Nl[4] := 5 1 9 2 10 ;
set Nl[5] := 10 5 7 6 ;
set Nl[6] := 2 1 9 5 6 ;

set El[1] := (1,10) (1,2) (2,6) (6,10) ;
set El[2] := (3,8) (1,8) (1,5) (3,5) (5,8) (1,3) ;
set El[3] := (5,7) (5,6) (6,8) (8,10) (7,10) ;
set El[4] := (1,5) (1,9) (2,9) (2,10) (5,10) (5,9) (9,10) (1,2) (1,10) (2,5) ;
set El[5] := (5,10) (5,7) (6,7) (6,10) (5,6) (7,10) ;
set El[6] := (1,2) (1,9) (5,9) (5,6) (2,6) ;
